%
% Another harder test
%

num_jobs = 15;
num_workers = 15;
duration = [30,10,15,15,20,10,10,45,20, 10,10,20,30,40,50];
resource = [ 3, 1, 3, 2, 4, 2, 2, 4, 3,  2, 2, 2, 3, 3, 4];
max_time = 100; % optimal: 70
allow_idle = true;
collect_workers = false;
do_precendences = false;
num_precedences = 1;
precedences = array2d(1..num_precedences, 1..2, 
[ 
  0,0 % dummy precedence
]);

